NAME : amz0017.1666036_76036.tour
COMMENT : Cost = 1666036_76036
COMMENT : Found by LKH-AMZ [Keld Helsgaun] Sun May 11 14:23:15 2025
COMMENT : TW viol.: 0 #: 0
TYPE : TOUR
DIMENSION : 112
TOUR_SECTION
87
41
22
94
98
99
42
81
71
82
79
56
54
105
12
76
62
28
85
92
4
29
102
25
51
10
7
89
80
8
97
84
33
46
91
3
49
50
61
77
55
104
45
66
20
86
52
16
15
75
93
38
35
24
112
36
63
39
48
11
74
108
57
96
68
72
70
19
60
31
13
23
27
5
2
18
47
1
40
78
21
111
83
43
32
106
110
34
26
107
17
109
64
44
59
53
65
90
30
100
69
101
95
58
67
37
6
103
14
9
88
73
-1
EOF
